c A temporal KB for measuring ID
p wcnf 68 56 5
4 1 5 9 13 0
4 -1 3 0
4 -1 -4 0
4 -13 3 0
4 -13 4 0
4 -5 7 0
4 -5 -8 0
4 -13 7 0
4 -13 8 0
4 -9 11 0
4 -9 -12 0
4 -13 11 0
4 -13 12 0
4 2 6 10 14 0
4 -2 4 0
4 -2 -3 0
4 -14 4 0
4 -14 3 0
4 -6 8 0
4 -6 -7 0
4 -14 8 0
4 -14 7 0
4 -10 12 0
4 -10 -11 0
4 -14 12 0
4 -14 11 0
4 2 5 15 0
4 -2 4 0
4 -2 -3 0
4 -15 4 0
4 -15 3 0
4 -5 7 0
4 -5 -8 0
4 -15 7 0
4 -15 8 0
4 6 9 16 0
4 -6 8 0
4 -6 -7 0
4 -16 8 0
4 -16 7 0
4 -9 11 0
4 -9 -12 0
4 -16 11 0
4 -16 12 0
4 10 1 17 0
4 -10 12 0
4 -10 -11 0
4 -17 12 0
4 -17 11 0
4 -1 3 0
4 -1 -4 0
4 -17 3 0
4 -17 4 0
1 -3 -4 0
1 -7 -8 0
1 -11 -12 0
